p cnf 92 330
3 4 5 0
6 7 8 0
9 10 11 0
12 13 14 0
15 16 17 0
18 19 20 0
21 22 23 0
24 25 26 0
27 28 29 0
30 31 32 0
33 34 35 0
36 37 38 0
39 40 41 0
42 43 44 0
45 46 47 0
48 49 50 0
51 52 53 0
54 55 56 0
57 58 59 0
60 61 62 0
63 64 65 0
66 67 68 0
69 70 71 0
72 73 74 0
75 76 77 0
78 79 80 0
81 82 83 0
84 85 86 0
87 88 89 0
90 91 92 0
-3 -6 0
-4 -7 0
-5 -8 0
-3 -33 0
-4 -34 0
-5 -35 0
-3 -12 0
-4 -13 0
-5 -14 0
-3 -39 0
-4 -40 0
-5 -41 0
-6 -30 0
-7 -31 0
-8 -32 0
-6 -9 0
-7 -10 0
-8 -11 0
-6 -36 0
-7 -37 0
-8 -38 0
-9 -18 0
-10 -19 0
-11 -20 0
-9 -24 0
-10 -25 0
-11 -26 0
-9 -33 0
-10 -34 0
-11 -35 0
-9 -45 0
-10 -46 0
-11 -47 0
-9 -51 0
-10 -52 0
-11 -53 0
-12 -15 0
-13 -16 0
-14 -17 0
-12 -24 0
-13 -25 0
-14 -26 0
-12 -30 0
-13 -31 0
-14 -32 0
-12 -42 0
-13 -43 0
-14 -44 0
-12 -51 0
-13 -52 0
-14 -53 0
-15 -21 0
-16 -22 0
-17 -23 0
-15 -27 0
-16 -28 0
-17 -29 0
-15 -39 0
-16 -40 0
-17 -41 0
-15 -48 0
-16 -49 0
-17 -50 0
-15 -54 0
-16 -55 0
-17 -56 0
-18 -21 0
-19 -22 0
-20 -23 0
-18 -27 0
-19 -28 0
-20 -29 0
-18 -36 0
-19 -37 0
-20 -38 0
-18 -48 0
-19 -49 0
-20 -50 0
-18 -54 0
-19 -55 0
-20 -56 0
-21 -24 0
-22 -25 0
-23 -26 0
-21 -27 0
-22 -28 0
-23 -29 0
-21 -42 0
-22 -43 0
-23 -44 0
-21 -45 0
-22 -46 0
-23 -47 0
-21 -51 0
-22 -52 0
-23 -53 0
-21 -54 0
-22 -55 0
-23 -56 0
-24 -27 0
-25 -28 0
-26 -29 0
-24 -36 0
-25 -37 0
-26 -38 0
-24 -39 0
-25 -40 0
-26 -41 0
-24 -48 0
-25 -49 0
-26 -50 0
-24 -54 0
-25 -55 0
-26 -56 0
-27 -42 0
-28 -43 0
-29 -44 0
-27 -45 0
-28 -46 0
-29 -47 0
-27 -48 0
-28 -49 0
-29 -50 0
-27 -51 0
-28 -52 0
-29 -53 0
-30 -60 0
-31 -61 0
-32 -62 0
-30 -66 0
-31 -67 0
-32 -68 0
-30 -87 0
-31 -88 0
-32 -89 0
-33 -57 0
-34 -58 0
-35 -59 0
-33 -63 0
-34 -64 0
-35 -65 0
-33 -87 0
-34 -88 0
-35 -89 0
-36 -60 0
-37 -61 0
-38 -62 0
-36 -72 0
-37 -73 0
-38 -74 0
-36 -78 0
-37 -79 0
-38 -80 0
-36 -87 0
-37 -88 0
-38 -89 0
-39 -57 0
-40 -58 0
-41 -59 0
-39 -69 0
-40 -70 0
-41 -71 0
-39 -78 0
-40 -79 0
-41 -80 0
-39 -87 0
-40 -88 0
-41 -89 0
-42 -66 0
-43 -67 0
-44 -68 0
-42 -75 0
-43 -76 0
-44 -77 0
-42 -81 0
-43 -82 0
-44 -83 0
-42 -87 0
-43 -88 0
-44 -89 0
-45 -63 0
-46 -64 0
-47 -65 0
-45 -75 0
-46 -76 0
-47 -77 0
-45 -81 0
-46 -82 0
-47 -83 0
-45 -87 0
-46 -88 0
-47 -89 0
-48 -69 0
-49 -70 0
-50 -71 0
-48 -72 0
-49 -73 0
-50 -74 0
-48 -78 0
-49 -79 0
-50 -80 0
-48 -81 0
-49 -82 0
-50 -83 0
-48 -87 0
-49 -88 0
-50 -89 0
-51 -63 0
-52 -64 0
-53 -65 0
-51 -66 0
-52 -67 0
-53 -68 0
-51 -75 0
-52 -76 0
-53 -77 0
-51 -81 0
-52 -82 0
-53 -83 0
-51 -87 0
-52 -88 0
-53 -89 0
-54 -69 0
-55 -70 0
-56 -71 0
-54 -72 0
-55 -73 0
-56 -74 0
-54 -75 0
-55 -76 0
-56 -77 0
-54 -78 0
-55 -79 0
-56 -80 0
-54 -87 0
-55 -88 0
-56 -89 0
-57 -84 0
-58 -85 0
-59 -86 0
-57 -90 0
-58 -91 0
-59 -92 0
-60 -84 0
-61 -85 0
-62 -86 0
-60 -90 0
-61 -91 0
-62 -92 0
-63 -84 0
-64 -85 0
-65 -86 0
-63 -90 0
-64 -91 0
-65 -92 0
-66 -84 0
-67 -85 0
-68 -86 0
-66 -90 0
-67 -91 0
-68 -92 0
-69 -84 0
-70 -85 0
-71 -86 0
-69 -90 0
-70 -91 0
-71 -92 0
-72 -84 0
-73 -85 0
-74 -86 0
-72 -90 0
-73 -91 0
-74 -92 0
-75 -84 0
-76 -85 0
-77 -86 0
-75 -90 0
-76 -91 0
-77 -92 0
-78 -84 0
-79 -85 0
-80 -86 0
-78 -90 0
-79 -91 0
-80 -92 0
-81 -84 0
-82 -85 0
-83 -86 0
-81 -90 0
-82 -91 0
-83 -92 0
-84 -87 0
-85 -88 0
-86 -89 0
-84 -90 0
-85 -91 0
-86 -92 0
-87 -90 0
-88 -91 0
-89 -92 0
